p cnf 965 2478
51 -698 -699 0
-51 698 0
-51 699 0
52 -51 -3 0
-52 51 0
-52 3 0
53 -5 -700 0
-53 5 0
-53 700 0
54 -53 -6 0
-54 53 0
-54 6 0
55 -701 -702 0
-55 701 0
-55 702 0
56 -8 -7 0
-56 8 0
-56 7 0
57 -56 -703 0
-57 56 0
-57 703 0
58 -704 -55 0
-58 704 0
-58 55 0
59 -10 -6 0
-59 10 0
-59 6 0
60 -59 -11 0
-60 59 0
-60 11 0
61 -705 -58 0
-61 705 0
-61 58 0
62 -706 -707 0
-62 706 0
-62 707 0
63 -62 -11 0
-63 62 0
-63 11 0
64 -708 -61 0
-64 708 0
-64 61 0
65 -709 -14 0
-65 709 0
-65 14 0
66 -65 -710 0
-66 65 0
-66 710 0
67 -711 -64 0
-67 711 0
-67 64 0
68 -707 -1 0
-68 707 0
-68 1 0
69 -68 -712 0
-69 68 0
-69 712 0
70 -713 -67 0
-70 713 0
-70 67 0
71 -17 -698 0
-71 17 0
-71 698 0
72 -71 -714 0
-72 71 0
-72 714 0
73 -715 -70 0
-73 715 0
-73 70 0
74 -716 -18 0
-74 716 0
-74 18 0
75 -74 -20 0
-75 74 0
-75 20 0
76 -717 -73 0
-76 717 0
-76 73 0
77 -718 -709 0
-77 718 0
-77 709 0
78 -77 -13 0
-78 77 0
-78 13 0
79 -719 -76 0
-79 719 0
-79 76 0
80 -23 -22 0
-80 23 0
-80 22 0
81 -80 -720 0
-81 80 0
-81 720 0
82 -721 -79 0
-82 721 0
-82 79 0
83 -722 -7 0
-83 722 0
-83 7 0
84 -83 -709 0
-84 83 0
-84 709 0
85 -723 -82 0
-85 723 0
-85 82 0
86 -25 -24 0
-86 25 0
-86 24 0
87 -86 -724 0
-87 86 0
-87 724 0
88 -725 -85 0
-88 725 0
-88 85 0
89 -24 -726 0
-89 24 0
-89 726 0
90 -89 -710 0
-90 89 0
-90 710 0
91 -727 -88 0
-91 727 0
-91 88 0
92 -28 -27 0
-92 28 0
-92 27 0
93 -92 -6 0
-93 92 0
-93 6 0
94 -728 -91 0
-94 728 0
-94 91 0
95 -25 -707 0
-95 25 0
-95 707 0
96 -95 -720 0
-96 95 0
-96 720 0
97 -729 -94 0
-97 729 0
-97 94 0
98 -29 -25 0
-98 29 0
-98 25 0
99 -98 -730 0
-99 98 0
-99 730 0
100 -731 -97 0
-100 731 0
-100 97 0
101 -31 -21 0
-101 31 0
-101 21 0
102 -101 -706 0
-102 101 0
-102 706 0
103 -732 -100 0
-103 732 0
-103 100 0
104 -32 -709 0
-104 32 0
-104 709 0
105 -104 -33 0
-105 104 0
-105 33 0
106 -733 -103 0
-106 733 0
-106 103 0
107 -34 -709 0
-107 34 0
-107 709 0
108 -107 -706 0
-108 107 0
-108 706 0
109 -734 -106 0
-109 734 0
-109 106 0
110 -726 -698 0
-110 726 0
-110 698 0
111 -110 -714 0
-111 110 0
-111 714 0
112 -735 -109 0
-112 735 0
-112 109 0
113 -35 -14 0
-113 35 0
-113 14 0
114 -113 -736 0
-114 113 0
-114 736 0
115 -737 -112 0
-115 737 0
-115 112 0
116 -21 -716 0
-116 21 0
-116 716 0
117 -116 -37 0
-117 116 0
-117 37 0
118 -738 -115 0
-118 738 0
-118 115 0
119 -739 -740 0
-119 739 0
-119 740 0
120 -119 -741 0
-120 119 0
-120 741 0
121 -742 -118 0
-121 742 0
-121 118 0
122 -41 -718 0
-122 41 0
-122 718 0
123 -122 -703 0
-123 122 0
-123 703 0
124 -743 -121 0
-124 743 0
-124 121 0
125 -744 -27 0
-125 744 0
-125 27 0
126 -125 -5 0
-126 125 0
-126 5 0
127 -745 -124 0
-127 745 0
-127 124 0
128 -26 -15 0
-128 26 0
-128 15 0
129 -128 -13 0
-129 128 0
-129 13 0
130 -746 -127 0
-130 746 0
-130 127 0
131 -42 -1 0
-131 42 0
-131 1 0
132 -131 -37 0
-132 131 0
-132 37 0
133 -747 -130 0
-133 747 0
-133 130 0
134 -748 -749 0
-134 748 0
-134 749 0
135 -134 -750 0
-135 134 0
-135 750 0
136 -751 -133 0
-136 751 0
-136 133 0
137 -37 -12 0
-137 37 0
-137 12 0
138 -137 -44 0
-138 137 0
-138 44 0
139 -752 -136 0
-139 752 0
-139 136 0
140 -38 -12 0
-140 38 0
-140 12 0
141 -140 -753 0
-141 140 0
-141 753 0
142 -754 -139 0
-142 754 0
-142 139 0
143 -755 -18 0
-143 755 0
-143 18 0
144 -143 -756 0
-144 143 0
-144 756 0
145 -757 -142 0
-145 757 0
-145 142 0
146 -716 -14 0
-146 716 0
-146 14 0
147 -146 -755 0
-147 146 0
-147 755 0
148 -758 -145 0
-148 758 0
-148 145 0
149 -40 -720 0
-149 40 0
-149 720 0
150 -149 -710 0
-150 149 0
-150 710 0
151 -759 -148 0
-151 759 0
-151 148 0
152 -724 -760 0
-152 724 0
-152 760 0
153 -152 -761 0
-153 152 0
-153 761 0
154 -762 -151 0
-154 762 0
-154 151 0
155 -8 -2 0
-155 8 0
-155 2 0
156 -155 -44 0
-156 155 0
-156 44 0
157 -763 -154 0
-157 763 0
-157 154 0
158 -38 -19 0
-158 38 0
-158 19 0
159 -158 -760 0
-159 158 0
-159 760 0
160 -764 -157 0
-160 764 0
-160 157 0
161 -25 -12 0
-161 25 0
-161 12 0
162 -161 -3 0
-162 161 0
-162 3 0
163 -765 -160 0
-163 765 0
-163 160 0
164 -766 -20 0
-164 766 0
-164 20 0
165 -164 -767 0
-165 164 0
-165 767 0
166 -768 -163 0
-166 768 0
-166 163 0
167 -740 -18 0
-167 740 0
-167 18 0
168 -167 -6 0
-168 167 0
-168 6 0
169 -769 -166 0
-169 769 0
-169 166 0
170 -753 -700 0
-170 753 0
-170 700 0
171 -170 -11 0
-171 170 0
-171 11 0
172 -770 -169 0
-172 770 0
-172 169 0
173 -724 -5 0
-173 724 0
-173 5 0
174 -173 -44 0
-174 173 0
-174 44 0
175 -771 -172 0
-175 771 0
-175 172 0
176 -42 -700 0
-176 42 0
-176 700 0
177 -176 -772 0
-177 176 0
-177 772 0
178 -773 -175 0
-178 773 0
-178 175 0
179 -722 -774 0
-179 722 0
-179 774 0
180 -179 -22 0
-180 179 0
-180 22 0
181 -775 -178 0
-181 775 0
-181 178 0
182 -40 -10 0
-182 40 0
-182 10 0
183 -182 -9 0
-183 182 0
-183 9 0
184 -776 -181 0
-184 776 0
-184 181 0
185 -47 -12 0
-185 47 0
-185 12 0
186 -185 -43 0
-186 185 0
-186 43 0
187 -777 -184 0
-187 777 0
-187 184 0
188 -716 -10 0
-188 716 0
-188 10 0
189 -188 -730 0
-189 188 0
-189 730 0
190 -778 -187 0
-190 778 0
-190 187 0
191 -779 -749 0
-191 779 0
-191 749 0
192 -191 -47 0
-192 191 0
-192 47 0
193 -780 -190 0
-193 780 0
-193 190 0
194 -29 -15 0
-194 29 0
-194 15 0
195 -194 -698 0
-195 194 0
-195 698 0
196 -781 -193 0
-196 781 0
-196 193 0
197 -782 -718 0
-197 782 0
-197 718 0
198 -197 -41 0
-198 197 0
-198 41 0
199 -783 -196 0
-199 783 0
-199 196 0
200 -784 -785 0
-200 784 0
-200 785 0
201 -200 -43 0
-201 200 0
-201 43 0
202 -786 -199 0
-202 786 0
-202 199 0
203 -42 -14 0
-203 42 0
-203 14 0
204 -203 -750 0
-204 203 0
-204 750 0
205 -787 -202 0
-205 787 0
-205 202 0
206 -767 -788 0
-206 767 0
-206 788 0
207 -206 -761 0
-207 206 0
-207 761 0
208 -789 -205 0
-208 789 0
-208 205 0
209 -788 -20 0
-209 788 0
-209 20 0
210 -209 -730 0
-210 209 0
-210 730 0
211 -790 -208 0
-211 790 0
-211 208 0
212 -45 -17 0
-212 45 0
-212 17 0
213 -212 -16 0
-213 212 0
-213 16 0
214 -791 -211 0
-214 791 0
-214 211 0
215 -792 -726 0
-215 792 0
-215 726 0
216 -215 -767 0
-216 215 0
-216 767 0
217 -793 -214 0
-217 793 0
-217 214 0
218 -782 -1 0
-218 782 0
-218 1 0
219 -218 -792 0
-219 218 0
-219 792 0
220 -794 -217 0
-220 794 0
-220 217 0
221 -40 -718 0
-221 40 0
-221 718 0
222 -221 -767 0
-222 221 0
-222 767 0
223 -795 -220 0
-223 795 0
-223 220 0
224 -26 -796 0
-224 26 0
-224 796 0
225 -224 -700 0
-225 224 0
-225 700 0
226 -797 -223 0
-226 797 0
-226 223 0
227 -19 -18 0
-227 19 0
-227 18 0
228 -227 -710 0
-228 227 0
-228 710 0
229 -798 -226 0
-229 798 0
-229 226 0
230 -32 -5 0
-230 32 0
-230 5 0
231 -230 -714 0
-231 230 0
-231 714 0
232 -799 -229 0
-232 799 0
-232 229 0
233 -800 -36 0
-233 800 0
-233 36 0
234 -233 -16 0
-234 233 0
-234 16 0
235 -801 -232 0
-235 801 0
-235 232 0
236 -34 -707 0
-236 34 0
-236 707 0
237 -236 -40 0
-237 236 0
-237 40 0
238 -802 -235 0
-238 802 0
-238 235 0
239 -766 -19 0
-239 766 0
-239 19 0
240 -239 -703 0
-240 239 0
-240 703 0
241 -803 -238 0
-241 803 0
-241 238 0
242 -785 -722 0
-242 785 0
-242 722 0
243 -242 -750 0
-243 242 0
-243 750 0
244 -804 -241 0
-244 804 0
-244 241 0
245 -718 -749 0
-245 718 0
-245 749 0
246 -245 -13 0
-246 245 0
-246 13 0
247 -805 -244 0
-247 805 0
-247 244 0
248 -806 -700 0
-248 806 0
-248 700 0
249 -248 -2 0
-249 248 0
-249 2 0
250 -807 -247 0
-250 807 0
-250 247 0
251 -30 -4 0
-251 30 0
-251 4 0
252 -251 -6 0
-252 251 0
-252 6 0
253 -808 -250 0
-253 808 0
-253 250 0
254 -46 -712 0
-254 46 0
-254 712 0
255 -254 -703 0
-255 254 0
-255 703 0
256 -809 -253 0
-256 809 0
-256 253 0
257 -14 -12 0
-257 14 0
-257 12 0
258 -257 -761 0
-258 257 0
-258 761 0
259 -810 -256 0
-259 810 0
-259 256 0
260 -760 -718 0
-260 760 0
-260 718 0
261 -260 -33 0
-261 260 0
-261 33 0
262 -811 -259 0
-262 811 0
-262 259 0
263 -796 -11 0
-263 796 0
-263 11 0
264 -263 -9 0
-264 263 0
-264 9 0
265 -812 -262 0
-265 812 0
-265 262 0
266 -813 -767 0
-266 813 0
-266 767 0
267 -266 -6 0
-267 266 0
-267 6 0
268 -814 -265 0
-268 814 0
-268 265 0
269 -748 -21 0
-269 748 0
-269 21 0
270 -269 -756 0
-270 269 0
-270 756 0
271 -815 -268 0
-271 815 0
-271 268 0
272 -30 -26 0
-272 30 0
-272 26 0
273 -272 -16 0
-273 272 0
-273 16 0
274 -816 -271 0
-274 816 0
-274 271 0
275 -766 -25 0
-275 766 0
-275 25 0
276 -275 -22 0
-276 275 0
-276 22 0
277 -817 -274 0
-277 817 0
-277 274 0
278 -784 -29 0
-278 784 0
-278 29 0
279 -278 -50 0
-279 278 0
-279 50 0
280 -818 -277 0
-280 818 0
-280 277 0
281 -749 -819 0
-281 749 0
-281 819 0
282 -281 -736 0
-282 281 0
-282 736 0
283 -820 -280 0
-283 820 0
-283 280 0
284 -821 -7 0
-284 821 0
-284 7 0
285 -284 -14 0
-285 284 0
-285 14 0
286 -822 -283 0
-286 822 0
-286 283 0
287 -38 -32 0
-287 38 0
-287 32 0
288 -287 -11 0
-288 287 0
-288 11 0
289 -823 -286 0
-289 823 0
-289 286 0
290 -27 -15 0
-290 27 0
-290 15 0
291 -290 -706 0
-291 290 0
-291 706 0
292 -824 -289 0
-292 824 0
-292 289 0
293 -740 -28 0
-293 740 0
-293 28 0
294 -293 -767 0
-294 293 0
-294 767 0
295 -825 -292 0
-295 825 0
-295 292 0
296 -47 -792 0
-296 47 0
-296 792 0
297 -296 -13 0
-297 296 0
-297 13 0
298 -826 -295 0
-298 826 0
-298 295 0
299 -34 -25 0
-299 34 0
-299 25 0
300 -299 -41 0
-300 299 0
-300 41 0
301 -827 -298 0
-301 827 0
-301 298 0
302 -784 -722 0
-302 784 0
-302 722 0
303 -302 -8 0
-303 302 0
-303 8 0
304 -828 -301 0
-304 828 0
-304 301 0
305 -38 -736 0
-305 38 0
-305 736 0
306 -305 -13 0
-306 305 0
-306 13 0
307 -829 -304 0
-307 829 0
-307 304 0
308 -707 -7 0
-308 707 0
-308 7 0
309 -308 -4 0
-309 308 0
-309 4 0
310 -830 -307 0
-310 830 0
-310 307 0
311 -48 -724 0
-311 48 0
-311 724 0
312 -311 -3 0
-312 311 0
-312 3 0
313 -831 -310 0
-313 831 0
-313 310 0
314 -724 -14 0
-314 724 0
-314 14 0
315 -314 -6 0
-315 314 0
-315 6 0
316 -832 -313 0
-316 832 0
-316 313 0
317 -748 -10 0
-317 748 0
-317 10 0
318 -317 -22 0
-318 317 0
-318 22 0
319 -833 -316 0
-319 833 0
-319 316 0
320 -792 -14 0
-320 792 0
-320 14 0
321 -320 -36 0
-321 320 0
-321 36 0
322 -834 -319 0
-322 834 0
-322 319 0
323 -785 -15 0
-323 785 0
-323 15 0
324 -323 -8 0
-324 323 0
-324 8 0
325 -835 -322 0
-325 835 0
-325 322 0
326 -772 -821 0
-326 772 0
-326 821 0
327 -326 -779 0
-327 326 0
-327 779 0
328 -836 -325 0
-328 836 0
-328 325 0
329 -45 -39 0
-329 45 0
-329 39 0
330 -329 -22 0
-330 329 0
-330 22 0
331 -837 -328 0
-331 837 0
-331 328 0
332 -38 -1 0
-332 38 0
-332 1 0
333 -332 -766 0
-333 332 0
-333 766 0
334 -838 -331 0
-334 838 0
-334 331 0
335 -753 -14 0
-335 753 0
-335 14 0
336 -335 -698 0
-336 335 0
-336 698 0
337 -839 -334 0
-337 839 0
-337 334 0
338 -29 -20 0
-338 29 0
-338 20 0
339 -338 -755 0
-339 338 0
-339 755 0
340 -840 -337 0
-340 840 0
-340 337 0
341 -49 -766 0
-341 49 0
-341 766 0
342 -341 -703 0
-342 341 0
-342 703 0
343 -841 -340 0
-343 841 0
-343 340 0
344 -722 -710 0
-344 722 0
-344 710 0
345 -344 -44 0
-345 344 0
-345 44 0
346 -842 -343 0
-346 842 0
-346 343 0
347 -22 -17 0
-347 22 0
-347 17 0
348 -347 -843 0
-348 347 0
-348 843 0
349 -844 -346 0
-349 844 0
-349 346 0
350 -14 -10 0
-350 14 0
-350 10 0
351 -350 -4 0
-351 350 0
-351 4 0
352 -845 -349 0
-352 845 0
-352 349 0
353 -26 -21 0
-353 26 0
-353 21 0
354 -353 -44 0
-354 353 0
-354 44 0
355 -846 -352 0
-355 846 0
-355 352 0
356 -847 -785 0
-356 847 0
-356 785 0
357 -356 -756 0
-357 356 0
-357 756 0
358 -848 -355 0
-358 848 0
-358 355 0
359 -813 -774 0
-359 813 0
-359 774 0
360 -359 -28 0
-360 359 0
-360 28 0
361 -849 -358 0
-361 849 0
-361 358 0
362 -35 -10 0
-362 35 0
-362 10 0
363 -362 -749 0
-363 362 0
-363 749 0
364 -850 -361 0
-364 850 0
-364 361 0
365 -851 -821 0
-365 851 0
-365 821 0
366 -365 -43 0
-366 365 0
-366 43 0
367 -852 -364 0
-367 852 0
-367 364 0
368 -8 -6 0
-368 8 0
-368 6 0
369 -368 -11 0
-369 368 0
-369 11 0
370 -853 -367 0
-370 853 0
-370 367 0
371 -788 -29 0
-371 788 0
-371 29 0
372 -371 -37 0
-372 371 0
-372 37 0
373 -854 -370 0
-373 854 0
-373 370 0
374 -709 -706 0
-374 709 0
-374 706 0
375 -374 -43 0
-375 374 0
-375 43 0
376 -855 -373 0
-376 855 0
-376 373 0
377 -80 -28 0
-377 80 0
-377 28 0
378 -856 -376 0
-378 856 0
-378 376 0
379 -847 -22 0
-379 847 0
-379 22 0
380 -379 -779 0
-380 379 0
-380 779 0
381 -857 -378 0
-381 857 0
-381 378 0
382 -50 -1 0
-382 50 0
-382 1 0
383 -382 -43 0
-383 382 0
-383 43 0
384 -858 -381 0
-384 858 0
-384 381 0
385 -796 -756 0
-385 796 0
-385 756 0
386 -385 -779 0
-386 385 0
-386 779 0
387 -859 -384 0
-387 859 0
-387 384 0
388 -788 -718 0
-388 788 0
-388 718 0
389 -388 -703 0
-389 388 0
-389 703 0
390 -860 -387 0
-390 860 0
-390 387 0
391 -813 -819 0
-391 813 0
-391 819 0
392 -391 -706 0
-392 391 0
-392 706 0
393 -861 -390 0
-393 861 0
-393 390 0
394 -24 -14 0
-394 24 0
-394 14 0
395 -394 -40 0
-395 394 0
-395 40 0
396 -862 -393 0
-396 862 0
-396 393 0
397 -37 -15 0
-397 37 0
-397 15 0
398 -397 -28 0
-398 397 0
-398 28 0
399 -863 -396 0
-399 863 0
-399 396 0
400 -847 -722 0
-400 847 0
-400 722 0
401 -400 -703 0
-401 400 0
-401 703 0
402 -864 -399 0
-402 864 0
-402 399 0
403 -379 -48 0
-403 379 0
-403 48 0
404 -865 -402 0
-404 865 0
-404 402 0
405 -22 -722 0
-405 22 0
-405 722 0
406 -405 -700 0
-406 405 0
-406 700 0
407 -866 -404 0
-407 866 0
-407 404 0
408 -800 -706 0
-408 800 0
-408 706 0
409 -408 -16 0
-409 408 0
-409 16 0
410 -867 -407 0
-410 867 0
-410 407 0
411 -772 -10 0
-411 772 0
-411 10 0
412 -411 -33 0
-412 411 0
-412 33 0
413 -868 -410 0
-413 868 0
-413 410 0
414 -706 -4 0
-414 706 0
-414 4 0
415 -414 -703 0
-415 414 0
-415 703 0
416 -869 -413 0
-416 869 0
-416 413 0
417 -847 -724 0
-417 847 0
-417 724 0
418 -417 -813 0
-418 417 0
-418 813 0
419 -870 -416 0
-419 870 0
-419 416 0
420 -36 -871 0
-420 36 0
-420 871 0
421 -420 -761 0
-421 420 0
-421 761 0
422 -872 -419 0
-422 872 0
-422 419 0
423 -748 -22 0
-423 748 0
-423 22 0
424 -423 -819 0
-424 423 0
-424 819 0
425 -873 -422 0
-425 873 0
-425 422 0
426 -782 -10 0
-426 782 0
-426 10 0
427 -426 -16 0
-427 426 0
-427 16 0
428 -874 -425 0
-428 874 0
-428 425 0
429 -26 -1 0
-429 26 0
-429 1 0
430 -429 -37 0
-430 429 0
-430 37 0
431 -875 -428 0
-431 875 0
-431 428 0
432 -851 -722 0
-432 851 0
-432 722 0
433 -432 -698 0
-433 432 0
-433 698 0
434 -876 -431 0
-434 876 0
-434 431 0
435 -716 -1 0
-435 716 0
-435 1 0
436 -435 -749 0
-436 435 0
-436 749 0
437 -877 -434 0
-437 877 0
-437 434 0
438 -843 -10 0
-438 843 0
-438 10 0
439 -438 -779 0
-439 438 0
-439 779 0
440 -878 -437 0
-440 878 0
-440 437 0
441 -65 -760 0
-441 65 0
-441 760 0
442 -879 -440 0
-442 879 0
-442 440 0
443 -35 -24 0
-443 35 0
-443 24 0
444 -443 -709 0
-444 443 0
-444 709 0
445 -880 -442 0
-445 880 0
-445 442 0
446 -25 -821 0
-446 25 0
-446 821 0
447 -446 -46 0
-447 446 0
-447 46 0
448 -881 -445 0
-448 881 0
-448 445 0
449 -167 -709 0
-449 167 0
-449 709 0
450 -882 -448 0
-450 882 0
-450 448 0
451 -756 -19 0
-451 756 0
-451 19 0
452 -451 -9 0
-452 451 0
-452 9 0
453 -883 -450 0
-453 883 0
-453 450 0
454 -761 -5 0
-454 761 0
-454 5 0
455 -454 -714 0
-455 454 0
-455 714 0
456 -884 -453 0
-456 884 0
-456 453 0
457 -740 -782 0
-457 740 0
-457 782 0
458 -457 -760 0
-458 457 0
-458 760 0
459 -885 -456 0
-459 885 0
-459 456 0
460 -782 -20 0
-460 782 0
-460 20 0
461 -460 -44 0
-461 460 0
-461 44 0
462 -886 -459 0
-462 886 0
-462 459 0
463 -750 -698 0
-463 750 0
-463 698 0
464 -463 -11 0
-464 463 0
-464 11 0
465 -887 -462 0
-465 887 0
-465 462 0
466 -724 -821 0
-466 724 0
-466 821 0
467 -466 -843 0
-467 466 0
-467 843 0
468 -888 -465 0
-468 888 0
-468 465 0
469 -39 -1 0
-469 39 0
-469 1 0
470 -469 -714 0
-470 469 0
-470 714 0
471 -889 -468 0
-471 889 0
-471 468 0
472 -813 -748 0
-472 813 0
-472 748 0
473 -472 -33 0
-473 472 0
-473 33 0
474 -890 -471 0
-474 890 0
-474 471 0
475 -772 -23 0
-475 772 0
-475 23 0
476 -475 -871 0
-476 475 0
-476 871 0
477 -891 -474 0
-477 891 0
-477 474 0
478 -796 -15 0
-478 796 0
-478 15 0
479 -478 -44 0
-479 478 0
-479 44 0
480 -892 -477 0
-480 892 0
-480 477 0
481 -766 -4 0
-481 766 0
-481 4 0
482 -481 -33 0
-482 481 0
-482 33 0
483 -893 -480 0
-483 893 0
-483 480 0
484 -749 -707 0
-484 749 0
-484 707 0
485 -484 -33 0
-485 484 0
-485 33 0
486 -894 -483 0
-486 894 0
-486 483 0
487 -35 -27 0
-487 35 0
-487 27 0
488 -487 -13 0
-488 487 0
-488 13 0
489 -895 -486 0
-489 895 0
-489 486 0
490 -755 -748 0
-490 755 0
-490 748 0
491 -490 -720 0
-491 490 0
-491 720 0
492 -896 -489 0
-492 896 0
-492 489 0
493 -35 -4 0
-493 35 0
-493 4 0
494 -493 -6 0
-494 493 0
-494 6 0
495 -897 -492 0
-495 897 0
-495 492 0
496 -741 -756 0
-496 741 0
-496 756 0
497 -496 -714 0
-497 496 0
-497 714 0
498 -898 -495 0
-498 898 0
-498 495 0
499 -49 -774 0
-499 49 0
-499 774 0
500 -499 -16 0
-500 499 0
-500 16 0
501 -899 -498 0
-501 899 0
-501 498 0
502 -10 -4 0
-502 10 0
-502 4 0
503 -502 -736 0
-503 502 0
-503 736 0
504 -900 -501 0
-504 900 0
-504 501 0
505 -767 -740 0
-505 767 0
-505 740 0
506 -505 -800 0
-506 505 0
-506 800 0
507 -901 -504 0
-507 901 0
-507 504 0
508 -42 -39 0
-508 42 0
-508 39 0
509 -508 -756 0
-509 508 0
-509 756 0
510 -902 -507 0
-510 902 0
-510 507 0
511 -50 -14 0
-511 50 0
-511 14 0
512 -511 -714 0
-512 511 0
-512 714 0
513 -903 -510 0
-513 903 0
-513 510 0
514 -21 -17 0
-514 21 0
-514 17 0
515 -514 -47 0
-515 514 0
-515 47 0
516 -904 -513 0
-516 904 0
-516 513 0
517 -42 -15 0
-517 42 0
-517 15 0
518 -517 -28 0
-518 517 0
-518 28 0
519 -905 -516 0
-519 905 0
-519 516 0
520 -23 -4 0
-520 23 0
-520 4 0
521 -520 -772 0
-521 520 0
-521 772 0
522 -906 -519 0
-522 906 0
-522 519 0
523 -25 -749 0
-523 25 0
-523 749 0
524 -523 -5 0
-524 523 0
-524 5 0
525 -907 -522 0
-525 907 0
-525 522 0
526 -716 -700 0
-526 716 0
-526 700 0
527 -526 -48 0
-527 526 0
-527 48 0
528 -908 -525 0
-528 908 0
-528 525 0
529 -18 -710 0
-529 18 0
-529 710 0
530 -529 -16 0
-530 529 0
-530 16 0
531 -909 -528 0
-531 909 0
-531 528 0
532 -806 -707 0
-532 806 0
-532 707 0
533 -532 -40 0
-533 532 0
-533 40 0
534 -910 -531 0
-534 910 0
-534 531 0
535 -40 -785 0
-535 40 0
-535 785 0
536 -535 -851 0
-536 535 0
-536 851 0
537 -911 -534 0
-537 911 0
-537 534 0
538 -30 -17 0
-538 30 0
-538 17 0
539 -538 -3 0
-539 538 0
-539 3 0
540 -912 -537 0
-540 912 0
-540 537 0
541 -27 -726 0
-541 27 0
-541 726 0
542 -541 -47 0
-542 541 0
-542 47 0
543 -913 -540 0
-543 913 0
-543 540 0
544 -53 -736 0
-544 53 0
-544 736 0
545 -914 -543 0
-545 914 0
-545 543 0
546 -47 -23 0
-546 47 0
-546 23 0
547 -546 -6 0
-547 546 0
-547 6 0
548 -915 -545 0
-548 915 0
-548 545 0
549 -788 -748 0
-549 788 0
-549 748 0
550 -549 -5 0
-550 549 0
-550 5 0
551 -916 -548 0
-551 916 0
-551 548 0
552 -851 -19 0
-552 851 0
-552 19 0
553 -552 -772 0
-553 552 0
-553 772 0
554 -917 -551 0
-554 917 0
-554 551 0
555 -739 -27 0
-555 739 0
-555 27 0
556 -555 -3 0
-556 555 0
-556 3 0
557 -918 -554 0
-557 918 0
-557 554 0
558 -15 -1 0
-558 15 0
-558 1 0
559 -558 -40 0
-559 558 0
-559 40 0
560 -919 -557 0
-560 919 0
-560 557 0
561 -744 -724 0
-561 744 0
-561 724 0
562 -561 -13 0
-562 561 0
-562 13 0
563 -920 -560 0
-563 920 0
-563 560 0
564 -49 -15 0
-564 49 0
-564 15 0
565 -564 -6 0
-565 564 0
-565 6 0
566 -921 -563 0
-566 921 0
-566 563 0
567 -30 -27 0
-567 30 0
-567 27 0
568 -567 -16 0
-568 567 0
-568 16 0
569 -922 -566 0
-569 922 0
-569 566 0
570 -31 -699 0
-570 31 0
-570 699 0
571 -570 -772 0
-571 570 0
-571 772 0
572 -923 -569 0
-572 923 0
-572 569 0
573 -37 -709 0
-573 37 0
-573 709 0
574 -573 -736 0
-574 573 0
-574 736 0
575 -924 -572 0
-575 924 0
-575 572 0
576 -31 -4 0
-576 31 0
-576 4 0
577 -576 -703 0
-577 576 0
-577 703 0
578 -925 -575 0
-578 925 0
-578 575 0
579 -716 -17 0
-579 716 0
-579 17 0
580 -579 -712 0
-580 579 0
-580 712 0
581 -926 -578 0
-581 926 0
-581 578 0
582 -739 -806 0
-582 739 0
-582 806 0
583 -582 -47 0
-583 582 0
-583 47 0
584 -927 -581 0
-584 927 0
-584 581 0
585 -19 -2 0
-585 19 0
-585 2 0
586 -585 -761 0
-586 585 0
-586 761 0
587 -928 -584 0
-587 928 0
-587 584 0
588 -740 -35 0
-588 740 0
-588 35 0
589 -588 -19 0
-589 588 0
-589 19 0
590 -929 -587 0
-590 929 0
-590 587 0
591 -741 -24 0
-591 741 0
-591 24 0
592 -591 -800 0
-592 591 0
-592 800 0
593 -930 -590 0
-593 930 0
-593 590 0
594 -813 -749 0
-594 813 0
-594 749 0
595 -594 -736 0
-595 594 0
-595 736 0
596 -931 -593 0
-596 931 0
-596 593 0
597 -46 -30 0
-597 46 0
-597 30 0
598 -597 -871 0
-598 597 0
-598 871 0
599 -932 -596 0
-599 932 0
-599 596 0
600 -785 -748 0
-600 785 0
-600 748 0
601 -600 -9 0
-601 600 0
-601 9 0
602 -933 -599 0
-602 933 0
-602 599 0
603 -10 -720 0
-603 10 0
-603 720 0
604 -603 -50 0
-604 603 0
-604 50 0
605 -934 -602 0
-605 934 0
-605 602 0
606 -785 -707 0
-606 785 0
-606 707 0
607 -606 -871 0
-607 606 0
-607 871 0
608 -935 -605 0
-608 935 0
-608 605 0
609 -41 -4 0
-609 41 0
-609 4 0
610 -609 -698 0
-610 609 0
-610 698 0
611 -936 -608 0
-611 936 0
-611 608 0
612 -741 -15 0
-612 741 0
-612 15 0
613 -612 -800 0
-613 612 0
-613 800 0
614 -937 -611 0
-614 937 0
-614 611 0
615 -46 -806 0
-615 46 0
-615 806 0
616 -615 -11 0
-616 615 0
-616 11 0
617 -938 -614 0
-617 938 0
-617 614 0
618 -36 -700 0
-618 36 0
-618 700 0
619 -618 -3 0
-619 618 0
-619 3 0
620 -939 -617 0
-620 939 0
-620 617 0
621 -19 -17 0
-621 19 0
-621 17 0
622 -621 -710 0
-622 621 0
-622 710 0
623 -940 -620 0
-623 940 0
-623 620 0
624 -722 -1 0
-624 722 0
-624 1 0
625 -624 -20 0
-625 624 0
-625 20 0
626 -941 -623 0
-626 941 0
-626 623 0
627 -28 -26 0
-627 28 0
-627 26 0
628 -627 -11 0
-628 627 0
-628 11 0
629 -942 -626 0
-629 942 0
-629 626 0
630 -819 -15 0
-630 819 0
-630 15 0
631 -630 -16 0
-631 630 0
-631 16 0
632 -943 -629 0
-632 943 0
-632 629 0
633 -784 -749 0
-633 784 0
-633 749 0
634 -633 -750 0
-634 633 0
-634 750 0
635 -944 -632 0
-635 944 0
-635 632 0
636 -736 -756 0
-636 736 0
-636 756 0
637 -636 -44 0
-637 636 0
-637 44 0
638 -945 -635 0
-638 945 0
-638 635 0
639 -49 -24 0
-639 49 0
-639 24 0
640 -639 -871 0
-640 639 0
-640 871 0
641 -946 -638 0
-641 946 0
-641 638 0
642 -49 -23 0
-642 49 0
-642 23 0
643 -642 -47 0
-643 642 0
-643 47 0
644 -947 -641 0
-644 947 0
-644 641 0
645 -39 -700 0
-645 39 0
-645 700 0
646 -645 -2 0
-646 645 0
-646 2 0
647 -948 -644 0
-647 948 0
-647 644 0
648 -788 -22 0
-648 788 0
-648 22 0
649 -648 -46 0
-649 648 0
-649 46 0
650 -949 -647 0
-650 949 0
-650 647 0
651 -45 -30 0
-651 45 0
-651 30 0
652 -651 -11 0
-652 651 0
-652 11 0
653 -950 -650 0
-653 950 0
-653 650 0
654 -38 -760 0
-654 38 0
-654 760 0
655 -654 -710 0
-655 654 0
-655 710 0
656 -951 -653 0
-656 951 0
-656 653 0
657 -42 -819 0
-657 42 0
-657 819 0
658 -657 -761 0
-658 657 0
-658 761 0
659 -952 -656 0
-659 952 0
-659 656 0
660 -766 -18 0
-660 766 0
-660 18 0
661 -660 -753 0
-661 660 0
-661 753 0
662 -953 -659 0
-662 953 0
-662 659 0
663 -46 -29 0
-663 46 0
-663 29 0
664 -663 -800 0
-664 663 0
-664 800 0
665 -954 -662 0
-665 954 0
-665 662 0
666 -38 -699 0
-666 38 0
-666 699 0
667 -666 -20 0
-667 666 0
-667 20 0
668 -955 -665 0
-668 955 0
-668 665 0
669 -36 -22 0
-669 36 0
-669 22 0
670 -669 -43 0
-670 669 0
-670 43 0
671 -956 -668 0
-671 956 0
-671 668 0
672 -30 -8 0
-672 30 0
-672 8 0
673 -672 -779 0
-673 672 0
-673 779 0
674 -957 -671 0
-674 957 0
-674 671 0
675 -26 -756 0
-675 26 0
-675 756 0
676 -675 -28 0
-676 675 0
-676 28 0
677 -958 -674 0
-677 958 0
-677 674 0
678 -748 -13 0
-678 748 0
-678 13 0
679 -678 -16 0
-679 678 0
-679 16 0
680 -959 -677 0
-680 959 0
-680 677 0
681 -284 -722 0
-681 284 0
-681 722 0
682 -960 -680 0
-682 960 0
-682 680 0
683 -26 -718 0
-683 26 0
-683 718 0
684 -683 -710 0
-684 683 0
-684 710 0
685 -961 -682 0
-685 961 0
-685 682 0
686 -784 -7 0
-686 784 0
-686 7 0
687 -686 -44 0
-687 686 0
-687 44 0
688 -962 -685 0
-688 962 0
-688 685 0
689 -767 -700 0
-689 767 0
-689 700 0
690 -689 -6 0
-690 689 0
-690 6 0
691 -963 -688 0
-691 963 0
-691 688 0
692 -29 -12 0
-692 29 0
-692 12 0
693 -692 -706 0
-693 692 0
-693 706 0
694 -964 -691 0
-694 964 0
-694 691 0
695 -40 -29 0
-695 40 0
-695 29 0
696 -695 -43 0
-696 695 0
-696 43 0
697 -965 -694 0
-697 965 0
-697 694 0
-698 -2 0
698 2 0
-699 -1 0
699 1 0
-700 -4 0
700 4 0
-701 -54 0
701 54 0
-702 -52 0
702 52 0
-703 -9 0
703 9 0
-704 -57 0
704 57 0
-705 -60 0
705 60 0
-706 -13 0
706 13 0
-707 -12 0
707 12 0
-708 -63 0
708 63 0
-709 -15 0
709 15 0
-710 -8 0
710 8 0
-711 -66 0
711 66 0
-712 -16 0
712 16 0
-713 -69 0
713 69 0
-714 -11 0
714 11 0
-715 -72 0
715 72 0
-716 -19 0
716 19 0
-717 -75 0
717 75 0
-718 -21 0
718 21 0
-719 -78 0
719 78 0
-720 -5 0
720 5 0
-721 -81 0
721 81 0
-722 -14 0
722 14 0
-723 -84 0
723 84 0
-724 -26 0
724 26 0
-725 -87 0
725 87 0
-726 -10 0
726 10 0
-727 -90 0
727 90 0
-728 -93 0
728 93 0
-729 -96 0
729 96 0
-730 -30 0
730 30 0
-731 -99 0
731 99 0
-732 -102 0
732 102 0
-733 -105 0
733 105 0
-734 -108 0
734 108 0
-735 -111 0
735 111 0
-736 -36 0
736 36 0
-737 -114 0
737 114 0
-738 -117 0
738 117 0
-739 -39 0
739 39 0
-740 -38 0
740 38 0
-741 -40 0
741 40 0
-742 -120 0
742 120 0
-743 -123 0
743 123 0
-744 -31 0
744 31 0
-745 -126 0
745 126 0
-746 -129 0
746 129 0
-747 -132 0
747 132 0
-748 -29 0
748 29 0
-749 -20 0
749 20 0
-750 -43 0
750 43 0
-751 -135 0
751 135 0
-752 -138 0
752 138 0
-753 -33 0
753 33 0
-754 -141 0
754 141 0
-755 -45 0
755 45 0
-756 -23 0
756 23 0
-757 -144 0
757 144 0
-758 -147 0
758 147 0
-759 -150 0
759 150 0
-760 -22 0
760 22 0
-761 -6 0
761 6 0
-762 -153 0
762 153 0
-763 -156 0
763 156 0
-764 -159 0
764 159 0
-765 -162 0
765 162 0
-766 -34 0
766 34 0
-767 -46 0
767 46 0
-768 -165 0
768 165 0
-769 -168 0
769 168 0
-770 -171 0
770 171 0
-771 -174 0
771 174 0
-772 -41 0
772 41 0
-773 -177 0
773 177 0
-774 -7 0
774 7 0
-775 -180 0
775 180 0
-776 -183 0
776 183 0
-777 -186 0
777 186 0
-778 -189 0
778 189 0
-779 -44 0
779 44 0
-780 -192 0
780 192 0
-781 -195 0
781 195 0
-782 -24 0
782 24 0
-783 -198 0
783 198 0
-784 -48 0
784 48 0
-785 -32 0
785 32 0
-786 -201 0
786 201 0
-787 -204 0
787 204 0
-788 -42 0
788 42 0
-789 -207 0
789 207 0
-790 -210 0
790 210 0
-791 -213 0
791 213 0
-792 -37 0
792 37 0
-793 -216 0
793 216 0
-794 -219 0
794 219 0
-795 -222 0
795 222 0
-796 -25 0
796 25 0
-797 -225 0
797 225 0
-798 -228 0
798 228 0
-799 -231 0
799 231 0
-800 -47 0
800 47 0
-801 -234 0
801 234 0
-802 -237 0
802 237 0
-803 -240 0
803 240 0
-804 -243 0
804 243 0
-805 -246 0
805 246 0
-806 -27 0
806 27 0
-807 -249 0
807 249 0
-808 -252 0
808 252 0
-809 -255 0
809 255 0
-810 -258 0
810 258 0
-811 -261 0
811 261 0
-812 -264 0
812 264 0
-813 -49 0
813 49 0
-814 -267 0
814 267 0
-815 -270 0
815 270 0
-816 -273 0
816 273 0
-817 -276 0
817 276 0
-818 -279 0
818 279 0
-819 -17 0
819 17 0
-820 -282 0
820 282 0
-821 -18 0
821 18 0
-822 -285 0
822 285 0
-823 -288 0
823 288 0
-824 -291 0
824 291 0
-825 -294 0
825 294 0
-826 -297 0
826 297 0
-827 -300 0
827 300 0
-828 -303 0
828 303 0
-829 -306 0
829 306 0
-830 -309 0
830 309 0
-831 -312 0
831 312 0
-832 -315 0
832 315 0
-833 -318 0
833 318 0
-834 -321 0
834 321 0
-835 -324 0
835 324 0
-836 -327 0
836 327 0
-837 -330 0
837 330 0
-838 -333 0
838 333 0
-839 -336 0
839 336 0
-840 -339 0
840 339 0
-841 -342 0
841 342 0
-842 -345 0
842 345 0
-843 -50 0
843 50 0
-844 -348 0
844 348 0
-845 -351 0
845 351 0
-846 -354 0
846 354 0
-847 -35 0
847 35 0
-848 -357 0
848 357 0
-849 -360 0
849 360 0
-850 -363 0
850 363 0
-851 -28 0
851 28 0
-852 -366 0
852 366 0
-853 -369 0
853 369 0
-854 -372 0
854 372 0
-855 -375 0
855 375 0
-856 -377 0
856 377 0
-857 -380 0
857 380 0
-858 -383 0
858 383 0
-859 -386 0
859 386 0
-860 -389 0
860 389 0
-861 -392 0
861 392 0
-862 -395 0
862 395 0
-863 -398 0
863 398 0
-864 -401 0
864 401 0
-865 -403 0
865 403 0
-866 -406 0
866 406 0
-867 -409 0
867 409 0
-868 -412 0
868 412 0
-869 -415 0
869 415 0
-870 -418 0
870 418 0
-871 -3 0
871 3 0
-872 -421 0
872 421 0
-873 -424 0
873 424 0
-874 -427 0
874 427 0
-875 -430 0
875 430 0
-876 -433 0
876 433 0
-877 -436 0
877 436 0
-878 -439 0
878 439 0
-879 -441 0
879 441 0
-880 -444 0
880 444 0
-881 -447 0
881 447 0
-882 -449 0
882 449 0
-883 -452 0
883 452 0
-884 -455 0
884 455 0
-885 -458 0
885 458 0
-886 -461 0
886 461 0
-887 -464 0
887 464 0
-888 -467 0
888 467 0
-889 -470 0
889 470 0
-890 -473 0
890 473 0
-891 -476 0
891 476 0
-892 -479 0
892 479 0
-893 -482 0
893 482 0
-894 -485 0
894 485 0
-895 -488 0
895 488 0
-896 -491 0
896 491 0
-897 -494 0
897 494 0
-898 -497 0
898 497 0
-899 -500 0
899 500 0
-900 -503 0
900 503 0
-901 -506 0
901 506 0
-902 -509 0
902 509 0
-903 -512 0
903 512 0
-904 -515 0
904 515 0
-905 -518 0
905 518 0
-906 -521 0
906 521 0
-907 -524 0
907 524 0
-908 -527 0
908 527 0
-909 -530 0
909 530 0
-910 -533 0
910 533 0
-911 -536 0
911 536 0
-912 -539 0
912 539 0
-913 -542 0
913 542 0
-914 -544 0
914 544 0
-915 -547 0
915 547 0
-916 -550 0
916 550 0
-917 -553 0
917 553 0
-918 -556 0
918 556 0
-919 -559 0
919 559 0
-920 -562 0
920 562 0
-921 -565 0
921 565 0
-922 -568 0
922 568 0
-923 -571 0
923 571 0
-924 -574 0
924 574 0
-925 -577 0
925 577 0
-926 -580 0
926 580 0
-927 -583 0
927 583 0
-928 -586 0
928 586 0
-929 -589 0
929 589 0
-930 -592 0
930 592 0
-931 -595 0
931 595 0
-932 -598 0
932 598 0
-933 -601 0
933 601 0
-934 -604 0
934 604 0
-935 -607 0
935 607 0
-936 -610 0
936 610 0
-937 -613 0
937 613 0
-938 -616 0
938 616 0
-939 -619 0
939 619 0
-940 -622 0
940 622 0
-941 -625 0
941 625 0
-942 -628 0
942 628 0
-943 -631 0
943 631 0
-944 -634 0
944 634 0
-945 -637 0
945 637 0
-946 -640 0
946 640 0
-947 -643 0
947 643 0
-948 -646 0
948 646 0
-949 -649 0
949 649 0
-950 -652 0
950 652 0
-951 -655 0
951 655 0
-952 -658 0
952 658 0
-953 -661 0
953 661 0
-954 -664 0
954 664 0
-955 -667 0
955 667 0
-956 -670 0
956 670 0
-957 -673 0
957 673 0
-958 -676 0
958 676 0
-959 -679 0
959 679 0
-960 -681 0
960 681 0
-961 -684 0
961 684 0
-962 -687 0
962 687 0
-963 -690 0
963 690 0
-964 -693 0
964 693 0
-965 -696 0
965 696 0
697 0
